Route #1: 1 40 24 31 18 11 37 2 16 1
Route #2: 1 43 41 13 7 5 26 27 12 17 30 9 1
Route #3: 1 29 10 14 3 33 38 8 35 19 1
Route #4: 1 6 42 44 23 22 34 20 21 36 39 32 1
Route #5: 1 45 15 28 25 4 1
cost 864
